unsat
(define-fun f ((x (_ BitVec 64))) (_ BitVec 64) (im (bvand #b0000000000000000000000000000000000000000000000000000000000000001 (arba (smol x))) (bvadd #b0000000000000000000000000000000000000000000000000000000000000001 (shesh x)) (bvand #b0000000000000000000000000000000000000000000000000000000000000001 (bvnot x))))
3.48user 0.11system 0:03.60elapsed 99%CPU (0avgtext+0avgdata 195364maxresident)k
0inputs+8outputs (0major+47046minor)pagefaults 0swaps
